(set-info :smt-lib-version 2.6)
(set-logic QF_NIA)
(set-info :source |
Generated by: Cristina Borralleras, Daniel Larraz, Albert Oliveras, Enric Rodriguez-Carbonell, Albert Rubio
Generated on: 2017-04-27
Generator: VeryMax
Application: Termination proving
Target solver: barcelogic
|)
(set-info :license "https://creativecommons.org/licenses/by/4.0/")
(set-info :category "industrial")
(set-info :status unsat)
(declare-fun global_invc1_0 () Int)
(declare-fun global_invc1_2 () Int)
(declare-fun global_invc1_1 () Int)
(declare-fun lam0n0 () Int)
(declare-fun lam0n4 () Int)
(declare-fun global_invc1_3 () Int)
(declare-fun lam0n1 () Int)
(declare-fun lam0n2 () Int)
(declare-fun lam0n3 () Int)
(declare-fun lam1n0 () Int)
(declare-fun lam1n1 () Int)
(declare-fun lam1n2 () Int)
(declare-fun lam1n3 () Int)
(declare-fun lam1n4 () Int)
(declare-fun lam1n7 () Int)
(declare-fun lam1n8 () Int)
(declare-fun lam1n5 () Int)
(declare-fun lam1n6 () Int)
(declare-fun lam2n0 () Int)
(declare-fun lam2n1 () Int)
(declare-fun lam2n2 () Int)
(declare-fun lam2n3 () Int)
(declare-fun lam2n4 () Int)
(declare-fun lam2n7 () Int)
(declare-fun lam2n8 () Int)
(declare-fun lam2n5 () Int)
(declare-fun lam2n6 () Int)
(declare-fun lam3n0 () Int)
(declare-fun lam3n1 () Int)
(declare-fun lam3n2 () Int)
(declare-fun lam3n3 () Int)
(declare-fun lam3n4 () Int)
(declare-fun lam3n7 () Int)
(declare-fun lam3n8 () Int)
(declare-fun lam3n5 () Int)
(declare-fun lam3n6 () Int)
(declare-fun lam4n0 () Int)
(declare-fun lam4n1 () Int)
(declare-fun lam4n2 () Int)
(declare-fun lam4n3 () Int)
(declare-fun lam4n6 () Int)
(declare-fun lam4n7 () Int)
(declare-fun lam4n4 () Int)
(declare-fun lam4n5 () Int)
(declare-fun lam5n0 () Int)
(declare-fun lam5n1 () Int)
(declare-fun lam5n2 () Int)
(declare-fun lam5n3 () Int)
(declare-fun lam5n6 () Int)
(declare-fun lam5n7 () Int)
(declare-fun lam5n4 () Int)
(declare-fun lam5n5 () Int)
(declare-fun lam6n0 () Int)
(declare-fun lam6n1 () Int)
(declare-fun lam6n2 () Int)
(declare-fun lam6n3 () Int)
(declare-fun lam6n6 () Int)
(declare-fun lam6n7 () Int)
(declare-fun lam6n4 () Int)
(declare-fun lam6n5 () Int)
(declare-fun term_invc1_0 () Int)
(declare-fun term_invc1_2 () Int)
(declare-fun term_invc1_1 () Int)
(declare-fun lam7n0 () Int)
(declare-fun lam7n1 () Int)
(declare-fun lam7n2 () Int)
(declare-fun lam7n3 () Int)
(declare-fun lam7n4 () Int)
(declare-fun lam7n7 () Int)
(declare-fun lam7n8 () Int)
(declare-fun term_invc1_3 () Int)
(declare-fun lam7n5 () Int)
(declare-fun lam7n6 () Int)
(declare-fun lam8n0 () Int)
(declare-fun lam8n1 () Int)
(declare-fun lam8n2 () Int)
(declare-fun lam8n3 () Int)
(declare-fun lam8n4 () Int)
(declare-fun lam8n7 () Int)
(declare-fun lam8n8 () Int)
(declare-fun lam8n5 () Int)
(declare-fun lam8n6 () Int)
(declare-fun lam9n0 () Int)
(declare-fun lam9n1 () Int)
(declare-fun lam9n2 () Int)
(declare-fun lam9n3 () Int)
(declare-fun lam9n4 () Int)
(declare-fun lam9n7 () Int)
(declare-fun lam9n8 () Int)
(declare-fun lam9n5 () Int)
(declare-fun lam9n6 () Int)
(declare-fun lam10n0 () Int)
(declare-fun lam10n1 () Int)
(declare-fun lam10n2 () Int)
(declare-fun lam10n3 () Int)
(declare-fun lam10n6 () Int)
(declare-fun lam10n7 () Int)
(declare-fun lam10n4 () Int)
(declare-fun lam10n5 () Int)
(declare-fun lam11n0 () Int)
(declare-fun lam11n1 () Int)
(declare-fun lam11n2 () Int)
(declare-fun lam11n3 () Int)
(declare-fun lam11n6 () Int)
(declare-fun lam11n7 () Int)
(declare-fun lam11n4 () Int)
(declare-fun lam11n5 () Int)
(declare-fun lam12n0 () Int)
(declare-fun lam12n1 () Int)
(declare-fun lam12n2 () Int)
(declare-fun lam12n3 () Int)
(declare-fun lam12n6 () Int)
(declare-fun lam12n7 () Int)
(declare-fun lam12n4 () Int)
(declare-fun lam12n5 () Int)
(declare-fun non_inc1 () Bool)
(declare-fun lam13n0 () Int)
(declare-fun lam13n1 () Int)
(declare-fun lam13n2 () Int)
(declare-fun lam13n3 () Int)
(declare-fun lam13n4 () Int)
(declare-fun lam13n7 () Int)
(declare-fun lam13n8 () Int)
(declare-fun lam13n10 () Int)
(declare-fun lam13n9 () Int)
(declare-fun lam13n5 () Int)
(declare-fun rfc0 () Int)
(declare-fun rfc1 () Int)
(declare-fun lam13n6 () Int)
(declare-fun rfc2 () Int)
(declare-fun disabled1 () Bool)
(declare-fun bounded1 () Bool)
(declare-fun lam14n0 () Int)
(declare-fun lam14n1 () Int)
(declare-fun lam14n2 () Int)
(declare-fun lam14n3 () Int)
(declare-fun lam14n4 () Int)
(declare-fun lam14n7 () Int)
(declare-fun lam14n8 () Int)
(declare-fun lam14n9 () Int)
(declare-fun rfc3 () Int)
(declare-fun lam14n5 () Int)
(declare-fun lam14n6 () Int)
(declare-fun dec1 () Bool)
(declare-fun lam15n0 () Int)
(declare-fun lam15n1 () Int)
(declare-fun lam15n2 () Int)
(declare-fun lam15n3 () Int)
(declare-fun lam15n4 () Int)
(declare-fun lam15n7 () Int)
(declare-fun lam15n8 () Int)
(declare-fun lam15n9 () Int)
(declare-fun lam15n5 () Int)
(declare-fun lam15n6 () Int)
(declare-fun bnd_and_dec1 () Bool)
(declare-fun non_inc2 () Bool)
(declare-fun lam16n0 () Int)
(declare-fun lam16n1 () Int)
(declare-fun lam16n2 () Int)
(declare-fun lam16n3 () Int)
(declare-fun lam16n4 () Int)
(declare-fun lam16n7 () Int)
(declare-fun lam16n8 () Int)
(declare-fun lam16n10 () Int)
(declare-fun lam16n9 () Int)
(declare-fun lam16n5 () Int)
(declare-fun lam16n6 () Int)
(declare-fun disabled2 () Bool)
(declare-fun bounded2 () Bool)
(declare-fun lam17n0 () Int)
(declare-fun lam17n1 () Int)
(declare-fun lam17n2 () Int)
(declare-fun lam17n3 () Int)
(declare-fun lam17n4 () Int)
(declare-fun lam17n7 () Int)
(declare-fun lam17n8 () Int)
(declare-fun lam17n9 () Int)
(declare-fun lam17n5 () Int)
(declare-fun lam17n6 () Int)
(declare-fun dec2 () Bool)
(declare-fun lam18n0 () Int)
(declare-fun lam18n1 () Int)
(declare-fun lam18n2 () Int)
(declare-fun lam18n3 () Int)
(declare-fun lam18n4 () Int)
(declare-fun lam18n7 () Int)
(declare-fun lam18n8 () Int)
(declare-fun lam18n9 () Int)
(declare-fun lam18n5 () Int)
(declare-fun lam18n6 () Int)
(declare-fun bnd_and_dec2 () Bool)
(declare-fun non_inc3 () Bool)
(declare-fun lam19n0 () Int)
(declare-fun lam19n1 () Int)
(declare-fun lam19n2 () Int)
(declare-fun lam19n3 () Int)
(declare-fun lam19n4 () Int)
(declare-fun lam19n7 () Int)
(declare-fun lam19n8 () Int)
(declare-fun lam19n10 () Int)
(declare-fun lam19n9 () Int)
(declare-fun lam19n5 () Int)
(declare-fun lam19n6 () Int)
(declare-fun disabled3 () Bool)
(declare-fun bounded3 () Bool)
(declare-fun lam20n0 () Int)
(declare-fun lam20n1 () Int)
(declare-fun lam20n2 () Int)
(declare-fun lam20n3 () Int)
(declare-fun lam20n4 () Int)
(declare-fun lam20n7 () Int)
(declare-fun lam20n8 () Int)
(declare-fun lam20n9 () Int)
(declare-fun lam20n5 () Int)
(declare-fun lam20n6 () Int)
(declare-fun dec3 () Bool)
(declare-fun lam21n0 () Int)
(declare-fun lam21n1 () Int)
(declare-fun lam21n2 () Int)
(declare-fun lam21n3 () Int)
(declare-fun lam21n4 () Int)
(declare-fun lam21n7 () Int)
(declare-fun lam21n8 () Int)
(declare-fun lam21n9 () Int)
(declare-fun lam21n5 () Int)
(declare-fun lam21n6 () Int)
(declare-fun bnd_and_dec3 () Bool)
(declare-fun non_inc4 () Bool)
(declare-fun lam22n0 () Int)
(declare-fun lam22n1 () Int)
(declare-fun lam22n2 () Int)
(declare-fun lam22n3 () Int)
(declare-fun lam22n6 () Int)
(declare-fun lam22n7 () Int)
(declare-fun lam22n9 () Int)
(declare-fun lam22n8 () Int)
(declare-fun lam22n4 () Int)
(declare-fun lam22n5 () Int)
(declare-fun disabled4 () Bool)
(declare-fun bounded4 () Bool)
(declare-fun lam23n0 () Int)
(declare-fun lam23n1 () Int)
(declare-fun lam23n2 () Int)
(declare-fun lam23n3 () Int)
(declare-fun lam23n6 () Int)
(declare-fun lam23n7 () Int)
(declare-fun lam23n8 () Int)
(declare-fun lam23n4 () Int)
(declare-fun lam23n5 () Int)
(declare-fun dec4 () Bool)
(declare-fun lam24n0 () Int)
(declare-fun lam24n1 () Int)
(declare-fun lam24n2 () Int)
(declare-fun lam24n3 () Int)
(declare-fun lam24n6 () Int)
(declare-fun lam24n7 () Int)
(declare-fun lam24n8 () Int)
(declare-fun lam24n4 () Int)
(declare-fun lam24n5 () Int)
(declare-fun bnd_and_dec4 () Bool)
(declare-fun non_inc5 () Bool)
(declare-fun lam25n0 () Int)
(declare-fun lam25n1 () Int)
(declare-fun lam25n2 () Int)
(declare-fun lam25n3 () Int)
(declare-fun lam25n6 () Int)
(declare-fun lam25n7 () Int)
(declare-fun lam25n9 () Int)
(declare-fun lam25n8 () Int)
(declare-fun lam25n4 () Int)
(declare-fun lam25n5 () Int)
(declare-fun disabled5 () Bool)
(declare-fun bounded5 () Bool)
(declare-fun lam26n0 () Int)
(declare-fun lam26n1 () Int)
(declare-fun lam26n2 () Int)
(declare-fun lam26n3 () Int)
(declare-fun lam26n6 () Int)
(declare-fun lam26n7 () Int)
(declare-fun lam26n8 () Int)
(declare-fun lam26n4 () Int)
(declare-fun lam26n5 () Int)
(declare-fun dec5 () Bool)
(declare-fun lam27n0 () Int)
(declare-fun lam27n1 () Int)
(declare-fun lam27n2 () Int)
(declare-fun lam27n3 () Int)
(declare-fun lam27n6 () Int)
(declare-fun lam27n7 () Int)
(declare-fun lam27n8 () Int)
(declare-fun lam27n4 () Int)
(declare-fun lam27n5 () Int)
(declare-fun bnd_and_dec5 () Bool)
(declare-fun non_inc6 () Bool)
(declare-fun lam28n0 () Int)
(declare-fun lam28n1 () Int)
(declare-fun lam28n2 () Int)
(declare-fun lam28n3 () Int)
(declare-fun lam28n6 () Int)
(declare-fun lam28n7 () Int)
(declare-fun lam28n9 () Int)
(declare-fun lam28n8 () Int)
(declare-fun lam28n4 () Int)
(declare-fun lam28n5 () Int)
(declare-fun disabled6 () Bool)
(declare-fun bounded6 () Bool)
(declare-fun lam29n0 () Int)
(declare-fun lam29n1 () Int)
(declare-fun lam29n2 () Int)
(declare-fun lam29n3 () Int)
(declare-fun lam29n6 () Int)
(declare-fun lam29n7 () Int)
(declare-fun lam29n8 () Int)
(declare-fun lam29n4 () Int)
(declare-fun lam29n5 () Int)
(declare-fun dec6 () Bool)
(declare-fun lam30n0 () Int)
(declare-fun lam30n1 () Int)
(declare-fun lam30n2 () Int)
(declare-fun lam30n3 () Int)
(declare-fun lam30n6 () Int)
(declare-fun lam30n7 () Int)
(declare-fun lam30n8 () Int)
(declare-fun lam30n4 () Int)
(declare-fun lam30n5 () Int)
(declare-fun bnd_and_dec6 () Bool)
(declare-fun GLOBAL_NT_1 () Bool)
(declare-fun global_V0_1 () Int)
(declare-fun global_V1_1 () Int)
(declare-fun global_V2_1 () Int)
(declare-fun TERM_NT_1 () Bool)
(declare-fun term_V0_1 () Int)
(declare-fun term_V1_1 () Int)
(declare-fun term_V2_1 () Int)
(declare-fun ALL_NON_INC_0 () Bool)
(declare-fun DIS_OR_ALL_NON_INC_0 () Bool)
(declare-fun SOME_BND_AND_DEC_0 () Bool)
(declare-fun V0_NIV () Int)
(declare-fun V2_NIV () Int)
(declare-fun V1_NIV () Int)
(declare-fun V3_NIV () Int)
(declare-fun V5_NIV () Int)
(declare-fun V4_NIV () Int)
(assert ( and ( >= global_invc1_0 ( - 1 ) ) ( <= global_invc1_0 1 ) ( >= global_invc1_2 ( - 1 ) ) ( <= global_invc1_2 1 ) ( >= global_invc1_1 ( - 1 ) ) ( <= global_invc1_1 1 ) ( and ( >= lam0n0 0 ) ( <= 0 lam0n4 ) ( < lam0n4 1 ) ( and ( = ( * ( - 1 ) lam0n0 ) ( + global_invc1_3 ( * ( - 1 ) lam0n4 ) ) ) ( = ( * lam0n1 1 ) 0 ) ( = ( * lam0n2 1 ) 0 ) ( = ( * lam0n3 1 ) 0 ) ( = ( * lam0n1 ( - 1 ) ) global_invc1_0 ) ( = ( * lam0n2 ( - 1 ) ) global_invc1_1 ) ( = ( * lam0n3 ( - 1 ) ) global_invc1_2 ) ) ) ( and ( >= lam1n0 0 ) ( >= lam1n1 0 ) ( >= lam1n2 0 ) ( >= lam1n3 0 ) ( >= lam1n4 0 ) ( >= lam1n7 0 ) ( <= 0 lam1n8 ) ( < lam1n8 1 ) ( and ( = ( + ( * ( - 1 ) lam1n0 ) ( * lam1n2 1 ) ( * lam1n3 ( - 1 ) ) ( * lam1n7 global_invc1_3 ) ) ( + global_invc1_3 ( * ( - 1 ) lam1n8 ) ) ) ( = ( + ( * lam1n5 1 ) ( * lam1n7 global_invc1_0 ) ) 0 ) ( = ( + ( * lam1n1 ( - 1 ) ) ( * lam1n2 ( - 1 ) ) ( * lam1n7 global_invc1_1 ) ) 0 ) ( = ( + ( * lam1n3 ( - 1 ) ) ( * lam1n4 ( - 1 ) ) ) 0 ) ( = ( + ( * lam1n6 1 ) ( * lam1n7 global_invc1_2 ) ) 0 ) ( = ( * lam1n5 ( - 1 ) ) global_invc1_0 ) ( = ( * lam1n6 ( - 1 ) ) global_invc1_2 ) ( = 0 global_invc1_1 ) ) ) ( and ( >= lam2n0 0 ) ( >= lam2n1 0 ) ( >= lam2n2 0 ) ( >= lam2n3 0 ) ( >= lam2n4 0 ) ( >= lam2n7 0 ) ( <= 0 lam2n8 ) ( < lam2n8 1 ) ( and ( = ( + ( * ( - 1 ) lam2n0 ) ( * lam2n2 1 ) ( * lam2n3 2 ) ( * lam2n7 global_invc1_3 ) ) ( + global_invc1_3 ( * ( - 1 ) lam2n8 ) ) ) ( = ( + ( * lam2n5 1 ) ( * lam2n7 global_invc1_0 ) ) 0 ) ( = ( + ( * lam2n1 ( - 1 ) ) ( * lam2n2 ( - 1 ) ) ( * lam2n7 global_invc1_1 ) ) 0 ) ( = ( * lam2n3 1 ) 0 ) ( = ( + ( * lam2n4 1 ) ( * lam2n6 1 ) ( * lam2n7 global_invc1_2 ) ) 0 ) ( = ( * lam2n5 ( - 1 ) ) global_invc1_0 ) ( = ( * lam2n6 ( - 1 ) ) global_invc1_2 ) ( = 0 global_invc1_1 ) ) ) ( and ( >= lam3n0 0 ) ( >= lam3n1 0 ) ( >= lam3n2 0 ) ( >= lam3n3 0 ) ( >= lam3n4 0 ) ( >= lam3n7 0 ) ( <= 0 lam3n8 ) ( < lam3n8 1 ) ( and ( = ( + ( * ( - 1 ) lam3n0 ) ( * lam3n2 1 ) ( * lam3n3 2 ) ( * lam3n4 1 ) ( * lam3n7 global_invc1_3 ) ) ( + global_invc1_3 ( * ( - 1 ) lam3n8 ) ) ) ( = ( + ( * lam3n5 1 ) ( * lam3n7 global_invc1_0 ) ) 0 ) ( = ( + ( * lam3n1 ( - 1 ) ) ( * lam3n2 ( - 1 ) ) ( * lam3n7 global_invc1_1 ) ) 0 ) ( = ( * lam3n3 1 ) 0 ) ( = ( + ( * lam3n4 ( - 1 ) ) ( * lam3n6 1 ) ( * lam3n7 global_invc1_2 ) ) 0 ) ( = ( * lam3n5 ( - 1 ) ) global_invc1_0 ) ( = ( * lam3n6 ( - 1 ) ) global_invc1_2 ) ( = 0 global_invc1_1 ) ) ) ( and ( >= lam4n0 0 ) ( >= lam4n1 0 ) ( >= lam4n2 0 ) ( >= lam4n3 0 ) ( >= lam4n6 0 ) ( <= 0 lam4n7 ) ( < lam4n7 1 ) ( and ( = ( + ( * ( - 1 ) lam4n0 ) ( * lam4n1 1 ) ( * lam4n2 1 ) ( * lam4n3 2 ) ( * lam4n6 global_invc1_3 ) ) ( + global_invc1_3 ( * ( - 1 ) lam4n7 ) ) ) ( = ( + ( * lam4n4 1 ) ( * lam4n6 global_invc1_0 ) ) 0 ) ( = ( + ( * lam4n1 1 ) ( * lam4n6 global_invc1_1 ) ) 0 ) ( = ( + ( * lam4n2 ( - 1 ) ) ( * lam4n3 ( - 1 ) ) ) 0 ) ( = ( + ( * lam4n5 1 ) ( * lam4n6 global_invc1_2 ) ) 0 ) ( = ( * lam4n4 ( - 1 ) ) global_invc1_0 ) ( = ( * lam4n5 ( - 1 ) ) global_invc1_2 ) ( = 0 global_invc1_1 ) ) ) ( and ( >= lam5n0 0 ) ( >= lam5n1 0 ) ( >= lam5n2 0 ) ( >= lam5n3 0 ) ( >= lam5n6 0 ) ( <= 0 lam5n7 ) ( < lam5n7 1 ) ( and ( = ( + ( * ( - 1 ) lam5n0 ) ( * lam5n1 1 ) ( * lam5n6 global_invc1_3 ) ) ( + global_invc1_3 ( * ( - 1 ) lam5n7 ) ) ) ( = ( + ( * lam5n4 1 ) ( * lam5n6 global_invc1_0 ) ) 0 ) ( = ( + ( * lam5n1 1 ) ( * lam5n6 global_invc1_1 ) ) 0 ) ( = ( + ( * lam5n3 1 ) ( * lam5n5 1 ) ( * lam5n6 global_invc1_2 ) ) 0 ) ( = ( * lam5n4 ( - 1 ) ) global_invc1_0 ) ( = ( * lam5n5 ( - 1 ) ) global_invc1_2 ) ( = ( * lam5n2 1 ) 0 ) ( = 0 global_invc1_1 ) ) ) ( and ( >= lam6n0 0 ) ( >= lam6n1 0 ) ( >= lam6n2 0 ) ( >= lam6n3 0 ) ( >= lam6n6 0 ) ( <= 0 lam6n7 ) ( < lam6n7 1 ) ( and ( = ( + ( * ( - 1 ) lam6n0 ) ( * lam6n1 1 ) ( * lam6n3 1 ) ( * lam6n6 global_invc1_3 ) ) ( + global_invc1_3 ( * ( - 1 ) lam6n7 ) ) ) ( = ( + ( * lam6n4 1 ) ( * lam6n6 global_invc1_0 ) ) 0 ) ( = ( + ( * lam6n1 1 ) ( * lam6n6 global_invc1_1 ) ) 0 ) ( = ( + ( * lam6n3 ( - 1 ) ) ( * lam6n5 1 ) ( * lam6n6 global_invc1_2 ) ) 0 ) ( = ( * lam6n4 ( - 1 ) ) global_invc1_0 ) ( = ( * lam6n5 ( - 1 ) ) global_invc1_2 ) ( = ( * lam6n2 1 ) 0 ) ( = 0 global_invc1_1 ) ) ) ( >= term_invc1_0 ( - 1 ) ) ( <= term_invc1_0 1 ) ( >= term_invc1_2 ( - 1 ) ) ( <= term_invc1_2 1 ) ( >= term_invc1_1 ( - 1 ) ) ( <= term_invc1_1 1 ) ( and ( >= lam7n0 0 ) ( >= lam7n1 0 ) ( >= lam7n2 0 ) ( >= lam7n3 0 ) ( >= lam7n4 0 ) ( >= lam7n7 0 ) ( <= 0 lam7n8 ) ( < lam7n8 1 ) ( and ( = ( + ( * ( - 1 ) lam7n0 ) ( * lam7n2 1 ) ( * lam7n3 ( - 1 ) ) ( * lam7n7 global_invc1_3 ) ) ( + term_invc1_3 ( * ( - 1 ) lam7n8 ) ) ) ( = ( + ( * lam7n5 1 ) ( * lam7n7 global_invc1_0 ) ) 0 ) ( = ( + ( * lam7n1 ( - 1 ) ) ( * lam7n2 ( - 1 ) ) ( * lam7n7 global_invc1_1 ) ) 0 ) ( = ( + ( * lam7n3 ( - 1 ) ) ( * lam7n4 ( - 1 ) ) ) 0 ) ( = ( + ( * lam7n6 1 ) ( * lam7n7 global_invc1_2 ) ) 0 ) ( = ( * lam7n5 ( - 1 ) ) term_invc1_0 ) ( = ( * lam7n6 ( - 1 ) ) term_invc1_2 ) ( = 0 term_invc1_1 ) ) ) ( and ( >= lam8n0 0 ) ( >= lam8n1 0 ) ( >= lam8n2 0 ) ( >= lam8n3 0 ) ( >= lam8n4 0 ) ( >= lam8n7 0 ) ( <= 0 lam8n8 ) ( < lam8n8 1 ) ( and ( = ( + ( * ( - 1 ) lam8n0 ) ( * lam8n2 1 ) ( * lam8n3 2 ) ( * lam8n7 global_invc1_3 ) ) ( + term_invc1_3 ( * ( - 1 ) lam8n8 ) ) ) ( = ( + ( * lam8n5 1 ) ( * lam8n7 global_invc1_0 ) ) 0 ) ( = ( + ( * lam8n1 ( - 1 ) ) ( * lam8n2 ( - 1 ) ) ( * lam8n7 global_invc1_1 ) ) 0 ) ( = ( * lam8n3 1 ) 0 ) ( = ( + ( * lam8n4 1 ) ( * lam8n6 1 ) ( * lam8n7 global_invc1_2 ) ) 0 ) ( = ( * lam8n5 ( - 1 ) ) term_invc1_0 ) ( = ( * lam8n6 ( - 1 ) ) term_invc1_2 ) ( = 0 term_invc1_1 ) ) ) ( and ( >= lam9n0 0 ) ( >= lam9n1 0 ) ( >= lam9n2 0 ) ( >= lam9n3 0 ) ( >= lam9n4 0 ) ( >= lam9n7 0 ) ( <= 0 lam9n8 ) ( < lam9n8 1 ) ( and ( = ( + ( * ( - 1 ) lam9n0 ) ( * lam9n2 1 ) ( * lam9n3 2 ) ( * lam9n4 1 ) ( * lam9n7 global_invc1_3 ) ) ( + term_invc1_3 ( * ( - 1 ) lam9n8 ) ) ) ( = ( + ( * lam9n5 1 ) ( * lam9n7 global_invc1_0 ) ) 0 ) ( = ( + ( * lam9n1 ( - 1 ) ) ( * lam9n2 ( - 1 ) ) ( * lam9n7 global_invc1_1 ) ) 0 ) ( = ( * lam9n3 1 ) 0 ) ( = ( + ( * lam9n4 ( - 1 ) ) ( * lam9n6 1 ) ( * lam9n7 global_invc1_2 ) ) 0 ) ( = ( * lam9n5 ( - 1 ) ) term_invc1_0 ) ( = ( * lam9n6 ( - 1 ) ) term_invc1_2 ) ( = 0 term_invc1_1 ) ) ) ( and ( >= lam10n0 0 ) ( >= lam10n1 0 ) ( >= lam10n2 0 ) ( >= lam10n3 0 ) ( >= lam10n6 0 ) ( <= 0 lam10n7 ) ( < lam10n7 1 ) ( and ( = ( + ( * ( - 1 ) lam10n0 ) ( * lam10n1 1 ) ( * lam10n2 1 ) ( * lam10n3 2 ) ( * lam10n6 global_invc1_3 ) ) ( + term_invc1_3 ( * ( - 1 ) lam10n7 ) ) ) ( = ( + ( * lam10n4 1 ) ( * lam10n6 global_invc1_0 ) ) 0 ) ( = ( + ( * lam10n1 1 ) ( * lam10n6 global_invc1_1 ) ) 0 ) ( = ( + ( * lam10n2 ( - 1 ) ) ( * lam10n3 ( - 1 ) ) ) 0 ) ( = ( + ( * lam10n5 1 ) ( * lam10n6 global_invc1_2 ) ) 0 ) ( = ( * lam10n4 ( - 1 ) ) term_invc1_0 ) ( = ( * lam10n5 ( - 1 ) ) term_invc1_2 ) ( = 0 term_invc1_1 ) ) ) ( and ( >= lam11n0 0 ) ( >= lam11n1 0 ) ( >= lam11n2 0 ) ( >= lam11n3 0 ) ( >= lam11n6 0 ) ( <= 0 lam11n7 ) ( < lam11n7 1 ) ( and ( = ( + ( * ( - 1 ) lam11n0 ) ( * lam11n1 1 ) ( * lam11n6 global_invc1_3 ) ) ( + term_invc1_3 ( * ( - 1 ) lam11n7 ) ) ) ( = ( + ( * lam11n4 1 ) ( * lam11n6 global_invc1_0 ) ) 0 ) ( = ( + ( * lam11n1 1 ) ( * lam11n6 global_invc1_1 ) ) 0 ) ( = ( + ( * lam11n3 1 ) ( * lam11n5 1 ) ( * lam11n6 global_invc1_2 ) ) 0 ) ( = ( * lam11n4 ( - 1 ) ) term_invc1_0 ) ( = ( * lam11n5 ( - 1 ) ) term_invc1_2 ) ( = ( * lam11n2 1 ) 0 ) ( = 0 term_invc1_1 ) ) ) ( and ( >= lam12n0 0 ) ( >= lam12n1 0 ) ( >= lam12n2 0 ) ( >= lam12n3 0 ) ( >= lam12n6 0 ) ( <= 0 lam12n7 ) ( < lam12n7 1 ) ( and ( = ( + ( * ( - 1 ) lam12n0 ) ( * lam12n1 1 ) ( * lam12n3 1 ) ( * lam12n6 global_invc1_3 ) ) ( + term_invc1_3 ( * ( - 1 ) lam12n7 ) ) ) ( = ( + ( * lam12n4 1 ) ( * lam12n6 global_invc1_0 ) ) 0 ) ( = ( + ( * lam12n1 1 ) ( * lam12n6 global_invc1_1 ) ) 0 ) ( = ( + ( * lam12n3 ( - 1 ) ) ( * lam12n5 1 ) ( * lam12n6 global_invc1_2 ) ) 0 ) ( = ( * lam12n4 ( - 1 ) ) term_invc1_0 ) ( = ( * lam12n5 ( - 1 ) ) term_invc1_2 ) ( = ( * lam12n2 1 ) 0 ) ( = 0 term_invc1_1 ) ) ) ( = non_inc1 ( and ( >= lam13n0 0 ) ( >= lam13n1 0 ) ( >= lam13n2 0 ) ( >= lam13n3 0 ) ( >= lam13n4 0 ) ( >= lam13n7 0 ) ( >= lam13n8 0 ) ( <= 0 lam13n10 ) ( < lam13n10 1 ) ( <= lam13n9 1 ) ( >= lam13n9 0 ) ( and ( > ( + ( * ( - 1 ) lam13n0 ) ( * lam13n2 1 ) ( * lam13n3 ( - 1 ) ) ( * lam13n7 global_invc1_3 ) ( * lam13n8 term_invc1_3 ) ( * lam13n9 ( + 1 ( * ( - 1 ) lam13n10 ) ) ) ) 0 ) ( = ( + ( * lam13n5 1 ) ( * lam13n7 global_invc1_0 ) ( * lam13n8 term_invc1_0 ) ( * lam13n9 rfc0 ) ) 0 ) ( = ( + ( * lam13n1 ( - 1 ) ) ( * lam13n2 ( - 1 ) ) ( * lam13n7 global_invc1_1 ) ( * lam13n8 term_invc1_1 ) ( * lam13n9 rfc1 ) ) 0 ) ( = ( + ( * lam13n3 ( - 1 ) ) ( * lam13n4 ( - 1 ) ) ) 0 ) ( = ( + ( * lam13n6 1 ) ( * lam13n7 global_invc1_2 ) ( * lam13n8 term_invc1_2 ) ( * lam13n9 rfc2 ) ) 0 ) ( = ( + ( * lam13n5 ( - 1 ) ) ( * lam13n9 ( * ( - 1 ) rfc0 ) ) ) 0 ) ( = ( * lam13n9 ( * ( - 1 ) rfc1 ) ) 0 ) ( = ( + ( * lam13n6 ( - 1 ) ) ( * lam13n9 ( * ( - 1 ) rfc2 ) ) ) 0 ) ) ) ) ( = disabled1 ( and ( = lam13n9 0 ) non_inc1 ) ) ( = bounded1 ( and ( >= lam14n0 0 ) ( >= lam14n1 0 ) ( >= lam14n2 0 ) ( >= lam14n3 0 ) ( >= lam14n4 0 ) ( >= lam14n7 0 ) ( >= lam14n8 0 ) ( <= 0 lam14n9 ) ( < lam14n9 1 ) ( and ( = ( + ( * ( - 1 ) lam14n0 ) ( * lam14n2 1 ) ( * lam14n3 ( - 1 ) ) ( * lam14n7 global_invc1_3 ) ( * lam14n8 term_invc1_3 ) ) ( + ( * ( - 1 ) rfc3 ) ( * ( - 1 ) lam14n9 ) ) ) ( = ( + ( * lam14n5 1 ) ( * lam14n7 global_invc1_0 ) ( * lam14n8 term_invc1_0 ) ) ( * ( - 1 ) rfc0 ) ) ( = ( + ( * lam14n1 ( - 1 ) ) ( * lam14n2 ( - 1 ) ) ( * lam14n7 global_invc1_1 ) ( * lam14n8 term_invc1_1 ) ) ( * ( - 1 ) rfc1 ) ) ( = ( + ( * lam14n3 ( - 1 ) ) ( * lam14n4 ( - 1 ) ) ) 0 ) ( = ( + ( * lam14n6 1 ) ( * lam14n7 global_invc1_2 ) ( * lam14n8 term_invc1_2 ) ) ( * ( - 1 ) rfc2 ) ) ( = ( * lam14n5 ( - 1 ) ) 0 ) ( = ( * lam14n6 ( - 1 ) ) 0 ) ) ) ) ( = dec1 ( and ( >= lam15n0 0 ) ( >= lam15n1 0 ) ( >= lam15n2 0 ) ( >= lam15n3 0 ) ( >= lam15n4 0 ) ( >= lam15n7 0 ) ( >= lam15n8 0 ) ( <= 0 lam15n9 ) ( < lam15n9 1 ) ( and ( = ( + ( * ( - 1 ) lam15n0 ) ( * lam15n2 1 ) ( * lam15n3 ( - 1 ) ) ( * lam15n7 global_invc1_3 ) ( * lam15n8 term_invc1_3 ) ) ( + 1 ( * ( - 1 ) lam15n9 ) ) ) ( = ( + ( * lam15n5 1 ) ( * lam15n7 global_invc1_0 ) ( * lam15n8 term_invc1_0 ) ) ( * ( - 1 ) rfc0 ) ) ( = ( + ( * lam15n1 ( - 1 ) ) ( * lam15n2 ( - 1 ) ) ( * lam15n7 global_invc1_1 ) ( * lam15n8 term_invc1_1 ) ) ( * ( - 1 ) rfc1 ) ) ( = ( + ( * lam15n3 ( - 1 ) ) ( * lam15n4 ( - 1 ) ) ) 0 ) ( = ( + ( * lam15n6 1 ) ( * lam15n7 global_invc1_2 ) ( * lam15n8 term_invc1_2 ) ) ( * ( - 1 ) rfc2 ) ) ( = ( * lam15n5 ( - 1 ) ) rfc0 ) ( = ( * lam15n6 ( - 1 ) ) rfc2 ) ( = 0 rfc1 ) ) ) ) ( = bnd_and_dec1 ( and bounded1 dec1 ) ) ( = non_inc2 ( and ( >= lam16n0 0 ) ( >= lam16n1 0 ) ( >= lam16n2 0 ) ( >= lam16n3 0 ) ( >= lam16n4 0 ) ( >= lam16n7 0 ) ( >= lam16n8 0 ) ( <= 0 lam16n10 ) ( < lam16n10 1 ) ( <= lam16n9 1 ) ( >= lam16n9 0 ) ( and ( > ( + ( * ( - 1 ) lam16n0 ) ( * lam16n2 1 ) ( * lam16n3 2 ) ( * lam16n7 global_invc1_3 ) ( * lam16n8 term_invc1_3 ) ( * lam16n9 ( + 1 ( * ( - 1 ) lam16n10 ) ) ) ) 0 ) ( = ( + ( * lam16n5 1 ) ( * lam16n7 global_invc1_0 ) ( * lam16n8 term_invc1_0 ) ( * lam16n9 rfc0 ) ) 0 ) ( = ( + ( * lam16n1 ( - 1 ) ) ( * lam16n2 ( - 1 ) ) ( * lam16n7 global_invc1_1 ) ( * lam16n8 term_invc1_1 ) ( * lam16n9 rfc1 ) ) 0 ) ( = ( * lam16n3 1 ) 0 ) ( = ( + ( * lam16n4 1 ) ( * lam16n6 1 ) ( * lam16n7 global_invc1_2 ) ( * lam16n8 term_invc1_2 ) ( * lam16n9 rfc2 ) ) 0 ) ( = ( + ( * lam16n5 ( - 1 ) ) ( * lam16n9 ( * ( - 1 ) rfc0 ) ) ) 0 ) ( = ( * lam16n9 ( * ( - 1 ) rfc1 ) ) 0 ) ( = ( + ( * lam16n6 ( - 1 ) ) ( * lam16n9 ( * ( - 1 ) rfc2 ) ) ) 0 ) ) ) ) ( = disabled2 ( and ( = lam16n9 0 ) non_inc2 ) ) ( = bounded2 ( and ( >= lam17n0 0 ) ( >= lam17n1 0 ) ( >= lam17n2 0 ) ( >= lam17n3 0 ) ( >= lam17n4 0 ) ( >= lam17n7 0 ) ( >= lam17n8 0 ) ( <= 0 lam17n9 ) ( < lam17n9 1 ) ( and ( = ( + ( * ( - 1 ) lam17n0 ) ( * lam17n2 1 ) ( * lam17n3 2 ) ( * lam17n7 global_invc1_3 ) ( * lam17n8 term_invc1_3 ) ) ( + ( * ( - 1 ) rfc3 ) ( * ( - 1 ) lam17n9 ) ) ) ( = ( + ( * lam17n5 1 ) ( * lam17n7 global_invc1_0 ) ( * lam17n8 term_invc1_0 ) ) ( * ( - 1 ) rfc0 ) ) ( = ( + ( * lam17n1 ( - 1 ) ) ( * lam17n2 ( - 1 ) ) ( * lam17n7 global_invc1_1 ) ( * lam17n8 term_invc1_1 ) ) ( * ( - 1 ) rfc1 ) ) ( = ( * lam17n3 1 ) 0 ) ( = ( + ( * lam17n4 1 ) ( * lam17n6 1 ) ( * lam17n7 global_invc1_2 ) ( * lam17n8 term_invc1_2 ) ) ( * ( - 1 ) rfc2 ) ) ( = ( * lam17n5 ( - 1 ) ) 0 ) ( = ( * lam17n6 ( - 1 ) ) 0 ) ) ) ) ( = dec2 ( and ( >= lam18n0 0 ) ( >= lam18n1 0 ) ( >= lam18n2 0 ) ( >= lam18n3 0 ) ( >= lam18n4 0 ) ( >= lam18n7 0 ) ( >= lam18n8 0 ) ( <= 0 lam18n9 ) ( < lam18n9 1 ) ( and ( = ( + ( * ( - 1 ) lam18n0 ) ( * lam18n2 1 ) ( * lam18n3 2 ) ( * lam18n7 global_invc1_3 ) ( * lam18n8 term_invc1_3 ) ) ( + 1 ( * ( - 1 ) lam18n9 ) ) ) ( = ( + ( * lam18n5 1 ) ( * lam18n7 global_invc1_0 ) ( * lam18n8 term_invc1_0 ) ) ( * ( - 1 ) rfc0 ) ) ( = ( + ( * lam18n1 ( - 1 ) ) ( * lam18n2 ( - 1 ) ) ( * lam18n7 global_invc1_1 ) ( * lam18n8 term_invc1_1 ) ) ( * ( - 1 ) rfc1 ) ) ( = ( * lam18n3 1 ) 0 ) ( = ( + ( * lam18n4 1 ) ( * lam18n6 1 ) ( * lam18n7 global_invc1_2 ) ( * lam18n8 term_invc1_2 ) ) ( * ( - 1 ) rfc2 ) ) ( = ( * lam18n5 ( - 1 ) ) rfc0 ) ( = ( * lam18n6 ( - 1 ) ) rfc2 ) ( = 0 rfc1 ) ) ) ) ( = bnd_and_dec2 ( and bounded2 dec2 ) ) ( = non_inc3 ( and ( >= lam19n0 0 ) ( >= lam19n1 0 ) ( >= lam19n2 0 ) ( >= lam19n3 0 ) ( >= lam19n4 0 ) ( >= lam19n7 0 ) ( >= lam19n8 0 ) ( <= 0 lam19n10 ) ( < lam19n10 1 ) ( <= lam19n9 1 ) ( >= lam19n9 0 ) ( and ( > ( + ( * ( - 1 ) lam19n0 ) ( * lam19n2 1 ) ( * lam19n3 2 ) ( * lam19n4 1 ) ( * lam19n7 global_invc1_3 ) ( * lam19n8 term_invc1_3 ) ( * lam19n9 ( + 1 ( * ( - 1 ) lam19n10 ) ) ) ) 0 ) ( = ( + ( * lam19n5 1 ) ( * lam19n7 global_invc1_0 ) ( * lam19n8 term_invc1_0 ) ( * lam19n9 rfc0 ) ) 0 ) ( = ( + ( * lam19n1 ( - 1 ) ) ( * lam19n2 ( - 1 ) ) ( * lam19n7 global_invc1_1 ) ( * lam19n8 term_invc1_1 ) ( * lam19n9 rfc1 ) ) 0 ) ( = ( * lam19n3 1 ) 0 ) ( = ( + ( * lam19n4 ( - 1 ) ) ( * lam19n6 1 ) ( * lam19n7 global_invc1_2 ) ( * lam19n8 term_invc1_2 ) ( * lam19n9 rfc2 ) ) 0 ) ( = ( + ( * lam19n5 ( - 1 ) ) ( * lam19n9 ( * ( - 1 ) rfc0 ) ) ) 0 ) ( = ( * lam19n9 ( * ( - 1 ) rfc1 ) ) 0 ) ( = ( + ( * lam19n6 ( - 1 ) ) ( * lam19n9 ( * ( - 1 ) rfc2 ) ) ) 0 ) ) ) ) ( = disabled3 ( and ( = lam19n9 0 ) non_inc3 ) ) ( = bounded3 ( and ( >= lam20n0 0 ) ( >= lam20n1 0 ) ( >= lam20n2 0 ) ( >= lam20n3 0 ) ( >= lam20n4 0 ) ( >= lam20n7 0 ) ( >= lam20n8 0 ) ( <= 0 lam20n9 ) ( < lam20n9 1 ) ( and ( = ( + ( * ( - 1 ) lam20n0 ) ( * lam20n2 1 ) ( * lam20n3 2 ) ( * lam20n4 1 ) ( * lam20n7 global_invc1_3 ) ( * lam20n8 term_invc1_3 ) ) ( + ( * ( - 1 ) rfc3 ) ( * ( - 1 ) lam20n9 ) ) ) ( = ( + ( * lam20n5 1 ) ( * lam20n7 global_invc1_0 ) ( * lam20n8 term_invc1_0 ) ) ( * ( - 1 ) rfc0 ) ) ( = ( + ( * lam20n1 ( - 1 ) ) ( * lam20n2 ( - 1 ) ) ( * lam20n7 global_invc1_1 ) ( * lam20n8 term_invc1_1 ) ) ( * ( - 1 ) rfc1 ) ) ( = ( * lam20n3 1 ) 0 ) ( = ( + ( * lam20n4 ( - 1 ) ) ( * lam20n6 1 ) ( * lam20n7 global_invc1_2 ) ( * lam20n8 term_invc1_2 ) ) ( * ( - 1 ) rfc2 ) ) ( = ( * lam20n5 ( - 1 ) ) 0 ) ( = ( * lam20n6 ( - 1 ) ) 0 ) ) ) ) ( = dec3 ( and ( >= lam21n0 0 ) ( >= lam21n1 0 ) ( >= lam21n2 0 ) ( >= lam21n3 0 ) ( >= lam21n4 0 ) ( >= lam21n7 0 ) ( >= lam21n8 0 ) ( <= 0 lam21n9 ) ( < lam21n9 1 ) ( and ( = ( + ( * ( - 1 ) lam21n0 ) ( * lam21n2 1 ) ( * lam21n3 2 ) ( * lam21n4 1 ) ( * lam21n7 global_invc1_3 ) ( * lam21n8 term_invc1_3 ) ) ( + 1 ( * ( - 1 ) lam21n9 ) ) ) ( = ( + ( * lam21n5 1 ) ( * lam21n7 global_invc1_0 ) ( * lam21n8 term_invc1_0 ) ) ( * ( - 1 ) rfc0 ) ) ( = ( + ( * lam21n1 ( - 1 ) ) ( * lam21n2 ( - 1 ) ) ( * lam21n7 global_invc1_1 ) ( * lam21n8 term_invc1_1 ) ) ( * ( - 1 ) rfc1 ) ) ( = ( * lam21n3 1 ) 0 ) ( = ( + ( * lam21n4 ( - 1 ) ) ( * lam21n6 1 ) ( * lam21n7 global_invc1_2 ) ( * lam21n8 term_invc1_2 ) ) ( * ( - 1 ) rfc2 ) ) ( = ( * lam21n5 ( - 1 ) ) rfc0 ) ( = ( * lam21n6 ( - 1 ) ) rfc2 ) ( = 0 rfc1 ) ) ) ) ( = bnd_and_dec3 ( and bounded3 dec3 ) ) ( = non_inc4 ( and ( >= lam22n0 0 ) ( >= lam22n1 0 ) ( >= lam22n2 0 ) ( >= lam22n3 0 ) ( >= lam22n6 0 ) ( >= lam22n7 0 ) ( <= 0 lam22n9 ) ( < lam22n9 1 ) ( <= lam22n8 1 ) ( >= lam22n8 0 ) ( and ( > ( + ( * ( - 1 ) lam22n0 ) ( * lam22n1 1 ) ( * lam22n2 1 ) ( * lam22n3 2 ) ( * lam22n6 global_invc1_3 ) ( * lam22n7 term_invc1_3 ) ( * lam22n8 ( + 1 ( * ( - 1 ) lam22n9 ) ) ) ) 0 ) ( = ( + ( * lam22n4 1 ) ( * lam22n6 global_invc1_0 ) ( * lam22n7 term_invc1_0 ) ( * lam22n8 rfc0 ) ) 0 ) ( = ( + ( * lam22n1 1 ) ( * lam22n6 global_invc1_1 ) ( * lam22n7 term_invc1_1 ) ( * lam22n8 rfc1 ) ) 0 ) ( = ( + ( * lam22n2 ( - 1 ) ) ( * lam22n3 ( - 1 ) ) ) 0 ) ( = ( + ( * lam22n5 1 ) ( * lam22n6 global_invc1_2 ) ( * lam22n7 term_invc1_2 ) ( * lam22n8 rfc2 ) ) 0 ) ( = ( + ( * lam22n4 ( - 1 ) ) ( * lam22n8 ( * ( - 1 ) rfc0 ) ) ) 0 ) ( = ( * lam22n8 ( * ( - 1 ) rfc1 ) ) 0 ) ( = ( + ( * lam22n5 ( - 1 ) ) ( * lam22n8 ( * ( - 1 ) rfc2 ) ) ) 0 ) ) ) ) ( = disabled4 ( and ( = lam22n8 0 ) non_inc4 ) ) ( = bounded4 ( and ( >= lam23n0 0 ) ( >= lam23n1 0 ) ( >= lam23n2 0 ) ( >= lam23n3 0 ) ( >= lam23n6 0 ) ( >= lam23n7 0 ) ( <= 0 lam23n8 ) ( < lam23n8 1 ) ( and ( = ( + ( * ( - 1 ) lam23n0 ) ( * lam23n1 1 ) ( * lam23n2 1 ) ( * lam23n3 2 ) ( * lam23n6 global_invc1_3 ) ( * lam23n7 term_invc1_3 ) ) ( + ( * ( - 1 ) rfc3 ) ( * ( - 1 ) lam23n8 ) ) ) ( = ( + ( * lam23n4 1 ) ( * lam23n6 global_invc1_0 ) ( * lam23n7 term_invc1_0 ) ) ( * ( - 1 ) rfc0 ) ) ( = ( + ( * lam23n1 1 ) ( * lam23n6 global_invc1_1 ) ( * lam23n7 term_invc1_1 ) ) ( * ( - 1 ) rfc1 ) ) ( = ( + ( * lam23n2 ( - 1 ) ) ( * lam23n3 ( - 1 ) ) ) 0 ) ( = ( + ( * lam23n5 1 ) ( * lam23n6 global_invc1_2 ) ( * lam23n7 term_invc1_2 ) ) ( * ( - 1 ) rfc2 ) ) ( = ( * lam23n4 ( - 1 ) ) 0 ) ( = ( * lam23n5 ( - 1 ) ) 0 ) ) ) ) ( = dec4 ( and ( >= lam24n0 0 ) ( >= lam24n1 0 ) ( >= lam24n2 0 ) ( >= lam24n3 0 ) ( >= lam24n6 0 ) ( >= lam24n7 0 ) ( <= 0 lam24n8 ) ( < lam24n8 1 ) ( and ( = ( + ( * ( - 1 ) lam24n0 ) ( * lam24n1 1 ) ( * lam24n2 1 ) ( * lam24n3 2 ) ( * lam24n6 global_invc1_3 ) ( * lam24n7 term_invc1_3 ) ) ( + 1 ( * ( - 1 ) lam24n8 ) ) ) ( = ( + ( * lam24n4 1 ) ( * lam24n6 global_invc1_0 ) ( * lam24n7 term_invc1_0 ) ) ( * ( - 1 ) rfc0 ) ) ( = ( + ( * lam24n1 1 ) ( * lam24n6 global_invc1_1 ) ( * lam24n7 term_invc1_1 ) ) ( * ( - 1 ) rfc1 ) ) ( = ( + ( * lam24n2 ( - 1 ) ) ( * lam24n3 ( - 1 ) ) ) 0 ) ( = ( + ( * lam24n5 1 ) ( * lam24n6 global_invc1_2 ) ( * lam24n7 term_invc1_2 ) ) ( * ( - 1 ) rfc2 ) ) ( = ( * lam24n4 ( - 1 ) ) rfc0 ) ( = ( * lam24n5 ( - 1 ) ) rfc2 ) ( = 0 rfc1 ) ) ) ) ( = bnd_and_dec4 ( and bounded4 dec4 ) ) ( = non_inc5 ( and ( >= lam25n0 0 ) ( >= lam25n1 0 ) ( >= lam25n2 0 ) ( >= lam25n3 0 ) ( >= lam25n6 0 ) ( >= lam25n7 0 ) ( <= 0 lam25n9 ) ( < lam25n9 1 ) ( <= lam25n8 1 ) ( >= lam25n8 0 ) ( and ( > ( + ( * ( - 1 ) lam25n0 ) ( * lam25n1 1 ) ( * lam25n6 global_invc1_3 ) ( * lam25n7 term_invc1_3 ) ( * lam25n8 ( + 1 ( * ( - 1 ) lam25n9 ) ) ) ) 0 ) ( = ( + ( * lam25n4 1 ) ( * lam25n6 global_invc1_0 ) ( * lam25n7 term_invc1_0 ) ( * lam25n8 rfc0 ) ) 0 ) ( = ( + ( * lam25n1 1 ) ( * lam25n6 global_invc1_1 ) ( * lam25n7 term_invc1_1 ) ( * lam25n8 rfc1 ) ) 0 ) ( = ( + ( * lam25n3 1 ) ( * lam25n5 1 ) ( * lam25n6 global_invc1_2 ) ( * lam25n7 term_invc1_2 ) ( * lam25n8 rfc2 ) ) 0 ) ( = ( + ( * lam25n4 ( - 1 ) ) ( * lam25n8 ( * ( - 1 ) rfc0 ) ) ) 0 ) ( = ( * lam25n8 ( * ( - 1 ) rfc1 ) ) 0 ) ( = ( + ( * lam25n5 ( - 1 ) ) ( * lam25n8 ( * ( - 1 ) rfc2 ) ) ) 0 ) ( = ( * lam25n2 1 ) 0 ) ) ) ) ( = disabled5 ( and ( = lam25n8 0 ) non_inc5 ) ) ( = bounded5 ( and ( >= lam26n0 0 ) ( >= lam26n1 0 ) ( >= lam26n2 0 ) ( >= lam26n3 0 ) ( >= lam26n6 0 ) ( >= lam26n7 0 ) ( <= 0 lam26n8 ) ( < lam26n8 1 ) ( and ( = ( + ( * ( - 1 ) lam26n0 ) ( * lam26n1 1 ) ( * lam26n6 global_invc1_3 ) ( * lam26n7 term_invc1_3 ) ) ( + ( * ( - 1 ) rfc3 ) ( * ( - 1 ) lam26n8 ) ) ) ( = ( + ( * lam26n4 1 ) ( * lam26n6 global_invc1_0 ) ( * lam26n7 term_invc1_0 ) ) ( * ( - 1 ) rfc0 ) ) ( = ( + ( * lam26n1 1 ) ( * lam26n6 global_invc1_1 ) ( * lam26n7 term_invc1_1 ) ) ( * ( - 1 ) rfc1 ) ) ( = ( + ( * lam26n3 1 ) ( * lam26n5 1 ) ( * lam26n6 global_invc1_2 ) ( * lam26n7 term_invc1_2 ) ) ( * ( - 1 ) rfc2 ) ) ( = ( * lam26n4 ( - 1 ) ) 0 ) ( = ( * lam26n5 ( - 1 ) ) 0 ) ( = ( * lam26n2 1 ) 0 ) ) ) ) ( = dec5 ( and ( >= lam27n0 0 ) ( >= lam27n1 0 ) ( >= lam27n2 0 ) ( >= lam27n3 0 ) ( >= lam27n6 0 ) ( >= lam27n7 0 ) ( <= 0 lam27n8 ) ( < lam27n8 1 ) ( and ( = ( + ( * ( - 1 ) lam27n0 ) ( * lam27n1 1 ) ( * lam27n6 global_invc1_3 ) ( * lam27n7 term_invc1_3 ) ) ( + 1 ( * ( - 1 ) lam27n8 ) ) ) ( = ( + ( * lam27n4 1 ) ( * lam27n6 global_invc1_0 ) ( * lam27n7 term_invc1_0 ) ) ( * ( - 1 ) rfc0 ) ) ( = ( + ( * lam27n1 1 ) ( * lam27n6 global_invc1_1 ) ( * lam27n7 term_invc1_1 ) ) ( * ( - 1 ) rfc1 ) ) ( = ( + ( * lam27n3 1 ) ( * lam27n5 1 ) ( * lam27n6 global_invc1_2 ) ( * lam27n7 term_invc1_2 ) ) ( * ( - 1 ) rfc2 ) ) ( = ( * lam27n4 ( - 1 ) ) rfc0 ) ( = ( * lam27n5 ( - 1 ) ) rfc2 ) ( = ( * lam27n2 1 ) 0 ) ( = 0 rfc1 ) ) ) ) ( = bnd_and_dec5 ( and bounded5 dec5 ) ) ( = non_inc6 ( and ( >= lam28n0 0 ) ( >= lam28n1 0 ) ( >= lam28n2 0 ) ( >= lam28n3 0 ) ( >= lam28n6 0 ) ( >= lam28n7 0 ) ( <= 0 lam28n9 ) ( < lam28n9 1 ) ( <= lam28n8 1 ) ( >= lam28n8 0 ) ( and ( > ( + ( * ( - 1 ) lam28n0 ) ( * lam28n1 1 ) ( * lam28n3 1 ) ( * lam28n6 global_invc1_3 ) ( * lam28n7 term_invc1_3 ) ( * lam28n8 ( + 1 ( * ( - 1 ) lam28n9 ) ) ) ) 0 ) ( = ( + ( * lam28n4 1 ) ( * lam28n6 global_invc1_0 ) ( * lam28n7 term_invc1_0 ) ( * lam28n8 rfc0 ) ) 0 ) ( = ( + ( * lam28n1 1 ) ( * lam28n6 global_invc1_1 ) ( * lam28n7 term_invc1_1 ) ( * lam28n8 rfc1 ) ) 0 ) ( = ( + ( * lam28n3 ( - 1 ) ) ( * lam28n5 1 ) ( * lam28n6 global_invc1_2 ) ( * lam28n7 term_invc1_2 ) ( * lam28n8 rfc2 ) ) 0 ) ( = ( + ( * lam28n4 ( - 1 ) ) ( * lam28n8 ( * ( - 1 ) rfc0 ) ) ) 0 ) ( = ( * lam28n8 ( * ( - 1 ) rfc1 ) ) 0 ) ( = ( + ( * lam28n5 ( - 1 ) ) ( * lam28n8 ( * ( - 1 ) rfc2 ) ) ) 0 ) ( = ( * lam28n2 1 ) 0 ) ) ) ) ( = disabled6 ( and ( = lam28n8 0 ) non_inc6 ) ) ( = bounded6 ( and ( >= lam29n0 0 ) ( >= lam29n1 0 ) ( >= lam29n2 0 ) ( >= lam29n3 0 ) ( >= lam29n6 0 ) ( >= lam29n7 0 ) ( <= 0 lam29n8 ) ( < lam29n8 1 ) ( and ( = ( + ( * ( - 1 ) lam29n0 ) ( * lam29n1 1 ) ( * lam29n3 1 ) ( * lam29n6 global_invc1_3 ) ( * lam29n7 term_invc1_3 ) ) ( + ( * ( - 1 ) rfc3 ) ( * ( - 1 ) lam29n8 ) ) ) ( = ( + ( * lam29n4 1 ) ( * lam29n6 global_invc1_0 ) ( * lam29n7 term_invc1_0 ) ) ( * ( - 1 ) rfc0 ) ) ( = ( + ( * lam29n1 1 ) ( * lam29n6 global_invc1_1 ) ( * lam29n7 term_invc1_1 ) ) ( * ( - 1 ) rfc1 ) ) ( = ( + ( * lam29n3 ( - 1 ) ) ( * lam29n5 1 ) ( * lam29n6 global_invc1_2 ) ( * lam29n7 term_invc1_2 ) ) ( * ( - 1 ) rfc2 ) ) ( = ( * lam29n4 ( - 1 ) ) 0 ) ( = ( * lam29n5 ( - 1 ) ) 0 ) ( = ( * lam29n2 1 ) 0 ) ) ) ) ( = dec6 ( and ( >= lam30n0 0 ) ( >= lam30n1 0 ) ( >= lam30n2 0 ) ( >= lam30n3 0 ) ( >= lam30n6 0 ) ( >= lam30n7 0 ) ( <= 0 lam30n8 ) ( < lam30n8 1 ) ( and ( = ( + ( * ( - 1 ) lam30n0 ) ( * lam30n1 1 ) ( * lam30n3 1 ) ( * lam30n6 global_invc1_3 ) ( * lam30n7 term_invc1_3 ) ) ( + 1 ( * ( - 1 ) lam30n8 ) ) ) ( = ( + ( * lam30n4 1 ) ( * lam30n6 global_invc1_0 ) ( * lam30n7 term_invc1_0 ) ) ( * ( - 1 ) rfc0 ) ) ( = ( + ( * lam30n1 1 ) ( * lam30n6 global_invc1_1 ) ( * lam30n7 term_invc1_1 ) ) ( * ( - 1 ) rfc1 ) ) ( = ( + ( * lam30n3 ( - 1 ) ) ( * lam30n5 1 ) ( * lam30n6 global_invc1_2 ) ( * lam30n7 term_invc1_2 ) ) ( * ( - 1 ) rfc2 ) ) ( = ( * lam30n4 ( - 1 ) ) rfc0 ) ( = ( * lam30n5 ( - 1 ) ) rfc2 ) ( = ( * lam30n2 1 ) 0 ) ( = 0 rfc1 ) ) ) ) ( = bnd_and_dec6 ( and bounded6 dec6 ) ) ( = GLOBAL_NT_1 ( or ( not ( = global_invc1_0 0 ) ) ( not ( = global_invc1_2 0 ) ) ( not ( = global_invc1_1 0 ) ) ) ) ( or ( not ( <= ( + global_invc1_3 ( * global_invc1_0 global_V0_1 ) ( * global_invc1_1 global_V1_1 ) ( * global_invc1_2 global_V2_1 ) ) 0 ) ) ( and ( = global_invc1_0 0 ) ( = global_invc1_2 0 ) ( = global_invc1_1 0 ) ) ) ( = TERM_NT_1 ( or ( not ( = term_invc1_0 0 ) ) ( not ( = term_invc1_2 0 ) ) ( not ( = term_invc1_1 0 ) ) ) ) ( or ( not ( <= ( + term_invc1_3 ( * term_invc1_0 term_V0_1 ) ( * term_invc1_1 term_V1_1 ) ( * term_invc1_2 term_V2_1 ) ) 0 ) ) ( and ( = term_invc1_0 0 ) ( = term_invc1_2 0 ) ( = term_invc1_1 0 ) ) ) ( = ALL_NON_INC_0 ( and non_inc1 non_inc2 non_inc3 non_inc4 non_inc5 non_inc6 ) ) ( = DIS_OR_ALL_NON_INC_0 ( or disabled1 disabled2 disabled3 disabled4 disabled5 disabled6 ALL_NON_INC_0 ) ) ( = SOME_BND_AND_DEC_0 ( or bnd_and_dec1 bnd_and_dec2 bnd_and_dec3 bnd_and_dec4 bnd_and_dec5 bnd_and_dec6 ) ) ( or ( not ALL_NON_INC_0 ) ( and ( not ( = rfc1 0 ) ) ( >= rfc3 0 ) ( or SOME_BND_AND_DEC_0 ( <= ( + ( * rfc0 V0_NIV ) ( * rfc2 V2_NIV ) ( * rfc1 V1_NIV ) 1 ) ( + ( * rfc0 V3_NIV ) ( * rfc2 V5_NIV ) ( * rfc1 V4_NIV ) ) ) ) ) ) ( or GLOBAL_NT_1 TERM_NT_1 ALL_NON_INC_0 ) ))
(check-sat)
(exit)
